tasks = 2;
stepsToAssign = 4;
taskSteps = array1d(1..2, [{1, 2}, {3, 4}]);
importance = array1d(1..4, [2981, 2981, 2981, 2981]);
workPositions = 4;
roles = 12;
possibleSkills = array1d(1..12, [{32, 30, 31}, {6, 9, 12, 15, 18}, {3, 21}, {32, 30, 31}, {6, 9, 12, 15, 18}, {3, 21}, {32, 30, 31}, {6, 9, 12, 15, 18}, {3, 21}, {32, 30, 31}, {6, 9, 12, 15, 18}, {3, 21}]);
roleToWorkPos = array1d(1..12, [{1}, {1}, {1}, {2}, {2}, {2}, {3}, {3}, {3}, {4}, {4}, {4}]);
requiredParts = 4;
possibleParts = array1d(1..4, [{33, 34, 35, 36, 37, 38, 39, 40, 41, 42, 43, 44, 45, 46, 47, 48}, {33, 34, 35, 36, 37, 38, 39, 40, 41, 42, 43, 44, 45, 46, 47, 48}, {33, 34, 35, 36, 37, 38, 39, 40, 41, 42, 43, 44, 45, 46, 47, 48}, {33, 34, 35, 36, 37, 38, 39, 40, 41, 42, 43, 44, 45, 46, 47, 48}]);
targetRole = array1d(1..4, [1, 4, 7, 10]);
stepToRoles = array1d(1..4, [{1, 2, 3}, {4, 5, 6}, {8, 9, 7}, {10, 11, 12}]);
stepToReqs = array1d(1..4, [{1}, {2}, {3}, {4}]);
